NAME : kroB100-C-3-1-a__scheduled_bias_same_priority_ls20__25532.tour
COMMENT : Length = 25532.000
COMMENT : Generated by evaluate_ctspd.py for scheduled_bias_same_priority_ls20
TYPE : TOUR
DIMENSION : 100
TOUR_SECTION
90
46
72
37
88
22
23
47
65
79
81
56
100
26
62
5
67
70
53
39
40
69
75
30
80
20
38
49
86
68
10
73
85
21
1
95
3
11
93
28
91
97
99
8
29
76
59
32
98
12
71
27
9
25
34
7
84
58
54
52
43
50
55
77
24
18
96
92
19
44
41
36
45
17
78
16
2
13
63
31
48
51
15
33
82
42
14
64
83
6
4
66
87
89
60
74
57
94
61
35
-1
EOF
